(set-logic HORN)
(set-info :source |
    Benchmark: C_VC
    Output by Princess (http://www.philipp.ruemmer.org/princess.shtml)
|)
(set-info :status unknown)
(declare-fun inv_main11 (Int Int Int Int) Bool)
(declare-fun inv_main13 (Int Int Int Int) Bool)
(declare-fun inv_main3 (Int Int Int Int) Bool)
(declare-fun inv_main5 (Int Int Int Int) Bool)
(assert (forall ((var0 Int)) (forall ((var1 Int)) (forall ((var2 Int)) (inv_main3 0 var0 var1 var2 ) ) ) ) )
(assert (forall ((var0 Int)) (forall ((var1 Int)) (forall ((var2 Int)) (forall ((var3 Int)) (or (not (inv_main11 var1 var0 var2 var3 ) ) (inv_main13 var1 var0 var2 var3 ) ) ) ) ) ) )
(assert (forall ((var0 Int)) (forall ((var1 Int)) (forall ((var2 Int)) (forall ((var3 Int)) (or (not (inv_main3 var1 var0 var2 var3 ) ) (inv_main5 var1 0 0 var3 ) ) ) ) ) ) )
(assert (forall ((var0 Int)) (forall ((var1 Int)) (forall ((var2 Int)) (forall ((var3 Int)) (or (not (and (inv_main5 var1 var0 var2 var3 ) (and (<= 0 (+ var3 (- 1) ) ) (not (<= 0 (+ (+ var3 (* (- 1) var0 ) ) (- 1) ) ) ) ) ) ) (inv_main11 var1 var0 var2 var3 ) ) ) ) ) ) )
(assert (forall ((var0 Int)) (forall ((var1 Int)) (forall ((var2 Int)) (forall ((var3 Int)) (or (not (and (inv_main5 var1 var0 var2 var3 ) (and (not (= var1 0 ) ) (<= 0 (+ (+ var3 (* (- 1) var0 ) ) (- 1) ) ) ) ) ) (inv_main5 var1 (+ var0 1 ) var0 var3 ) ) ) ) ) ) )
(assert (forall ((var0 Int)) (forall ((var1 Int)) (forall ((var2 Int)) (forall ((var3 Int)) (or (not (and (inv_main5 var1 var0 var2 var3 ) (and (= var1 0 ) (<= 0 (+ (+ var3 (* (- 1) var0 ) ) (- 1) ) ) ) ) ) (inv_main5 var1 (+ var0 1 ) var2 var3 ) ) ) ) ) ) )
(assert (forall ((var0 Int)) (forall ((var1 Int)) (forall ((var2 Int)) (forall ((var3 Int)) (not (and (inv_main11 var1 var0 var2 var3 ) (not (<= 0 var2 ) ) ) ) ) ) ) ) )
(assert (forall ((var0 Int)) (forall ((var1 Int)) (forall ((var2 Int)) (forall ((var3 Int)) (not (and (inv_main13 var1 var0 var2 var3 ) (not (<= 0 (+ (+ var3 (* (- 1) var2 ) ) (- 1) ) ) ) ) ) ) ) ) ) )
(check-sat)
